p cnf 122 426
-1 2 -3 0
1 -2 -3 0
-1 -2 3 0
1 2 3 0
-5 -3 0
-5 4 0
3 -4 5 0
6 5 0
6 -4 0
-5 4 -6 0
8 -6 0
8 -7 0
6 7 -8 0
11 -9 0
11 -10 0
9 10 -11 0
-13 -12 0
-13 -1 0
12 1 13 0
14 11 0
14 -13 0
-11 13 -14 0
-15 -8 0
-15 14 0
8 -14 15 0
11 -16 -17 0
-11 16 -17 0
11 16 17 0
-11 -16 17 0
20 18 0
20 -19 0
-18 19 -20 0
21 -13 0
21 20 0
13 -20 -21 0
24 -22 0
24 23 0
22 -23 -24 0
-19 -24 -25 0
19 24 -25 0
-19 24 25 0
19 -24 25 0
-26 -25 0
-26 -10 0
25 10 26 0
-21 -26 -27 0
21 26 -27 0
-21 26 27 0
21 -26 27 0
28 -17 0
28 -27 0
17 27 -28 0
-29 7 0
-29 -2 0
-7 2 29 0
-18 -30 0
18 -30 0
31 -29 0
31 -30 0
29 30 -31 0
32 28 0
32 31 0
-28 -31 -32 0
-33 15 0
-33 32 0
-15 -32 33 0
-35 -29 0
-35 34 0
29 -34 35 0
36 26 0
36 12 0
-26 -12 -36 0
-37 -5 0
-37 -36 0
5 36 37 0
-35 -37 -38 0
35 37 -38 0
-35 37 38 0
35 -37 38 0
-39 -6 0
-39 5 0
6 -5 39 0
-40 30 0
-40 29 0
-30 -29 40 0
41 -9 0
41 -9 0
9 -41 0
42 40 0
42 -41 0
-40 41 -42 0
-39 42 -43 0
39 -42 -43 0
-39 -42 43 0
39 42 43 0
44 -5 0
44 22 0
5 -22 -44 0
-45 -25 0
-45 -40 0
25 40 45 0
-46 45 0
-46 21 0
-45 -21 46 0
47 -34 0
47 12 0
34 -12 -47 0
48 46 0
48 47 0
-46 -47 -48 0
-49 30 0
-49 30 0
-30 49 0
50 -22 0
50 49 0
22 -49 -50 0
-51 -23 0
-51 50 0
23 -50 51 0
-51 -49 -52 0
51 49 -52 0
-51 49 52 0
51 -49 52 0
-52 53 -54 0
52 -53 -54 0
-52 -53 54 0
52 53 54 0
48 54 -55 0
-48 -54 -55 0
48 -54 55 0
-48 54 55 0
-56 -23 0
-56 -30 0
23 30 56 0
-1 -19 -57 0
1 19 -57 0
-1 19 57 0
1 -19 57 0
-23 2 -58 0
23 -2 -58 0
-23 -2 58 0
23 2 58 0
-59 -41 0
-59 58 0
41 -58 59 0
60 59 0
60 40 0
-59 -40 -60 0
-61 -57 0
-61 60 0
57 -60 61 0
62 -11 0
62 30 0
11 -30 -62 0
63 -61 0
63 -62 0
61 62 -63 0
-18 8 -64 0
18 -8 -64 0
-18 -8 64 0
18 8 64 0
-63 -64 -65 0
63 64 -65 0
-63 64 65 0
63 -64 65 0
66 56 0
66 -65 0
-56 65 -66 0
67 -3 0
67 -5 0
3 5 -67 0
-36 4 -68 0
36 -4 -68 0
-36 -4 68 0
36 4 68 0
69 67 0
69 -68 0
-67 68 -69 0
-70 66 0
-70 69 0
-66 -69 70 0
-71 6 0
-71 2 0
-6 -2 71 0
-72 6 0
-72 -71 0
-6 71 72 0
73 -72 0
73 -7 0
72 7 -73 0
-73 71 -74 0
73 -71 -74 0
-73 -71 74 0
73 71 74 0
-75 -16 0
-75 -34 0
16 34 75 0
-13 75 -76 0
13 -75 -76 0
-13 -75 76 0
13 75 76 0
-76 57 -77 0
76 -57 -77 0
-76 -57 77 0
76 57 77 0
-78 -2 0
-78 75 0
2 -75 78 0
79 77 0
79 -78 0
-77 78 -79 0
-80 74 0
-80 79 0
-74 -79 80 0
81 70 0
81 80 0
-70 -80 -81 0
26 -71 -82 0
-26 71 -82 0
26 71 82 0
-26 -71 82 0
-81 82 -83 0
81 -82 -83 0
-81 -82 83 0
81 82 83 0
-55 -83 -84 0
55 83 -84 0
-55 83 84 0
55 -83 84 0
-85 -3 0
-85 -62 0
3 62 85 0
-86 46 0
-86 85 0
-46 -85 86 0
-87 4 0
-87 -47 0
-4 47 87 0
-88 -71 0
-88 75 0
71 -75 88 0
-9 57 -89 0
9 -57 -89 0
-9 -57 89 0
9 57 89 0
90 88 0
90 89 0
-88 -89 -90 0
91 -87 0
91 90 0
87 -90 -91 0
-92 -86 0
-92 91 0
86 -91 92 0
93 -84 0
93 -92 0
84 92 -93 0
-30 22 -94 0
30 -22 -94 0
-30 -22 94 0
30 22 94 0
93 -94 -95 0
-93 94 -95 0
93 94 95 0
-93 -94 95 0
-96 44 0
-96 95 0
-44 -95 96 0
-40 -4 -97 0
40 4 -97 0
-40 4 97 0
40 -4 97 0
98 23 0
98 -23 0
-99 -97 0
-99 -98 0
97 98 99 0
-96 99 -100 0
96 -99 -100 0
-96 -99 100 0
96 99 100 0
-101 57 0
-101 -23 0
-57 23 101 0
51 101 -102 0
-51 -101 -102 0
51 -101 102 0
-51 101 102 0
103 -25 0
103 -21 0
25 21 -103 0
104 102 0
104 103 0
-102 -103 -104 0
-105 75 0
-105 5 0
-75 -5 105 0
105 46 -106 0
-105 -46 -106 0
105 -46 106 0
-105 46 106 0
-107 -104 0
-107 -106 0
104 106 107 0
-108 -100 0
-108 107 0
100 -107 108 0
43 108 -109 0
-43 -108 -109 0
43 -108 109 0
-43 108 109 0
-110 10 0
-110 6 0
-10 -6 110 0
-111 -85 0
-111 30 0
85 -30 111 0
112 -57 0
112 -111 0
57 111 -112 0
-13 -21 -113 0
13 21 -113 0
-13 21 113 0
13 -21 113 0
112 113 -114 0
-112 -113 -114 0
112 -113 114 0
-112 113 114 0
115 110 0
115 114 0
-110 -114 -115 0
116 -21 0
116 85 0
21 -85 -116 0
49 -19 -117 0
-49 19 -117 0
49 19 117 0
-49 -19 117 0
118 116 0
118 -117 0
-116 117 -118 0
-119 115 0
-119 118 0
-115 -118 119 0
-120 109 0
-120 119 0
-109 -119 120 0
-38 120 -121 0
38 -120 -121 0
-38 -120 121 0
38 120 121 0
-122 -33 0
-122 -121 0
33 121 122 0
81 -87 19 112 -39 -24 0
-86 111 -95 18 0
113 -102 -114 -122 -82 30 0
-54 -28 20 91 0
-95 72 -87 -53 0
-74 -32 5 50 -22 0
-91 -122 -46 0
40 -43 -100 70 -8 -93 0
-8 -96 0
62 -42 101 20 0
77 -97 53 0
-40 -113 -104 21 0
-93 -32 -99 110 0
23 -121 -68 3 109 0
-4 1 -31 -84 0
-30 56 5 0
-79 6 -73 -13 -107 71 0
14 60 -76 0
-43 -80 14 27 0
45 90 56 -103 -69 0
-110 -94 103 118 11 -54 0
72 122 -121 -86 0
-80 104 69 94 101 -67 0
22 -7 115 -25 40 0
121 -88 -55 -74 -70 -10 0
7 63 -2 15 31 0
-23 -68 53 51 52 13 0
62 94 0
71 -84 -73 -52 53 0
104 -40 -21 -59 0
58 81 0
110 -80 -109 9 -10 -74 0
105 -43 22 0
105 -92 -51 102 0
8 -106 0
45 15 -27 0
4 -47 -31 0
72 -11 79 36 19 0
-3 100 1 10 0
-46 18 -3 -9 -45 -27 0
-101 -84 -37 54 -82 0
-107 -9 -113 -83 0
-97 94 1 0
-3 -90 -110 61 -50 0
-4 62 -47 0
-16 -108 0
-69 -44 29 -32 -25 0
-96 28 49 -119 0
-32 -21 70 -121 0
23 16 97 -46 68 122 0
-28 -91 4 -122 90 -53 0
94 14 78 -61 13 49 0
-107 -73 -17 0
-106 15 -103 0
18 -70 88 -56 106 0
59 -78 -88 0
30 78 -41 10 102 0
-84 -9 101 76 68 0
-66 -3 -122 0
-13 115 -91 -63 0
121 -21 -75 0
84 -66 -22 9 0
103 -73 0
52 -79 22 7 -30 61 0
16 -59 20 0
4 -37 114 75 98 56 0
90 -102 -93 -19 0
-83 96 118 64 16 74 0
-5 108 75 24 0
88 49 -37 106 9 44 0
-98 74 0
122 0
